NAME : 10_3_3_2_(35).dat
COMMENT : Henke, Speranza, Wäscher, 2015
TYPE : MCVRP
DIMENSION : 11
EDGE_WEIGHT_TYPE : DISTANCE_MATRIX
CAPACITY : 1000
VEHICLES : 2
PRODUCT TYPES : 3
COMPARTMENTS : 3
NODE_COORD_SECTION
1 50 50
2 31.55 73.92
3 98.8 53
4 7.06 4.52
5 46.81 98.83
6 49.04 76.36
7 91.09 52.22
8 69.03 82.52
9 8.21 88.79
10 20.32 75.71
11 7.89 47.7
DEMAND_SECTION
1 0 0 0
2 0 39 74
3 103 67 0
4 0 128 28
5 149 46 0
6 105 0 30
7 154 0 35
8 38 0 10
9 0 110 47
10 118 0 52
11 29 27 0
DEPOT_SECTION
1
EOF